c 28 Maven
c 60 AngularJS
c 12 Server
c 38 PostgreSQL
c 8 False
c 18 Consul
c 58 MessageBroker
c 43 SearchEngine
c 51 MySQL
c 15 MySql
c 23 Client
c 20 EhCache
c 17 AuthenticationType
c 7 ServerSideOption
c 22 LibSass
c 21 HibernateCache
c 16 JWT
c 44 HTTPSession
c 49 SwaggerCodegen
c 32 SQL
c 4 ApplicationType
c 41 Angular4
c 55 Uaa
c 46 Oracle12c
c 3 MicroserviceApplication
c 37 MongoDB
c 50 NoDB
c 42 ClientFrameWork
c 57 MariaDBDev
c 52 Cucumber
c 33 Application
c 48 NoHB
c 39 H2InMemory
c 26 Gatling
c 40 Oauth2
c 34 Cassandra
c 56 SocialLogIn
c 1 H2DiskBased
c 6 ProDataBaseType
c 24 ClusteredHttpSession
c 59 MsSql
c 47 MsSQL
c 45 Oracle
c 19 DataBaseType
c 13 jhipster
c 9 ServiceDiscoveryType
c 35 MicroserviceGateway
c 53 MariaDB
c 30 WebSocket
c 5 Monolithic
c 29 HazelCast
c 2 DevDataBaseType
c 27 TestFramework
c 31 UaaServer
c 11 BuildTool
c 36 Protractor
c 54 PostgreSQLDev
c 10 Gradle
c 25 Infinispan
c 14 Eureka
p cnf 61 676
-1 2 0
-3 4 0
-5 4 0
-6 7 0
-8 9 0
-10 11 0
-9 7 0
-12 13 0
-14 9 0
-15 2 0
-16 17 0
-18 9 0
-19 7 0
-20 21 0
-22 23 0
-18 9 0
-24 12 0
-25 21 0
-26 27 0
-28 11 0
-29 21 0
-8 9 0
-16 17 0
-8 9 0
-30 12 0
-31 4 0
-32 19 0
-33 13 0
-17 7 0
-34 19 0
-35 4 0
-34 19 0
-15 2 0
-8 9 0
-20 21 0
-36 27 0
-28 11 0
-37 19 0
-36 27 0
-38 6 0
-2 7 0
-15 2 0
-14 9 0
-29 21 0
-39 2 0
-8 9 0
-25 21 0
-18 9 0
-40 17 0
-18 9 0
-17 7 0
-41 42 0
-10 11 0
-37 19 0
-8 9 0
-32 19 0
-19 7 0
-25 21 0
-28 11 0
-10 11 0
-9 7 0
-6 7 0
-43 12 0
-32 19 0
-37 19 0
-5 4 0
-29 21 0
-2 7 0
-10 11 0
-44 17 0
-43 12 0
-34 19 0
-1 2 0
-40 17 0
-45 6 0
-46 2 0
-47 6 0
-17 7 0
-48 21 0
-31 4 0
-15 2 0
-49 12 0
-20 21 0
-32 19 0
-38 6 0
-10 11 0
-28 11 0
-34 19 0
-31 4 0
-40 17 0
-8 9 0
-30 12 0
-50 19 0
-47 6 0
-14 9 0
-16 17 0
-51 6 0
-21 7 0
-14 9 0
-52 27 0
-14 9 0
-34 19 0
-36 27 0
-32 19 0
-38 6 0
-37 19 0
-53 6 0
-4 33 0
-47 6 0
-50 19 0
-4 33 0
-4 33 0
-48 21 0
-3 4 0
-14 9 0
-10 11 0
-6 7 0
-8 9 0
-29 21 0
-44 17 0
-36 27 0
-8 9 0
-51 6 0
-54 2 0
-39 2 0
-55 17 0
-52 27 0
-34 19 0
-48 21 0
-3 4 0
-11 7 0
-8 9 0
-11 7 0
-1 2 0
-52 27 0
-30 12 0
-48 21 0
-31 4 0
-55 17 0
-9 7 0
-32 19 0
-37 19 0
-50 19 0
-26 27 0
-25 21 0
-21 7 0
-8 9 0
-25 21 0
-17 7 0
-16 17 0
-20 21 0
-10 11 0
-11 7 0
-56 12 0
-7 12 0
-29 21 0
-34 19 0
-54 2 0
-20 21 0
-48 21 0
-40 17 0
-40 17 0
-25 21 0
-34 19 0
-40 17 0
-50 19 0
-21 7 0
-19 7 0
-50 19 0
-48 21 0
-48 21 0
-39 2 0
-25 21 0
-7 12 0
-10 11 0
-57 2 0
-53 6 0
-37 19 0
-6 7 0
-28 11 0
-51 6 0
-58 12 0
-20 21 0
-59 2 0
-52 27 0
-51 6 0
-2 7 0
-32 19 0
-16 17 0
-18 9 0
-16 17 0
-17 7 0
-55 17 0
-12 13 0
-11 7 0
-1 2 0
-17 7 0
-44 17 0
-46 2 0
-15 2 0
-34 19 0
-25 21 0
-50 19 0
-7 12 0
-18 9 0
-45 6 0
-34 19 0
-39 2 0
-55 17 0
-51 6 0
-31 4 0
-10 11 0
-15 2 0
-14 9 0
-44 17 0
-45 6 0
-21 7 0
-52 27 0
-60 42 0
-10 11 0
-55 17 0
-58 12 0
-5 4 0
-60 42 0
-16 17 0
-5 4 0
-6 7 0
-54 2 0
-44 17 0
-17 7 0
-6 7 0
-44 17 0
-28 11 0
-50 19 0
-50 19 0
-51 6 0
-20 21 0
-25 21 0
-52 27 0
-37 19 0
-32 19 0
-39 2 0
-11 7 0
-19 7 0
-40 17 0
-57 2 0
-50 19 0
-20 21 0
-48 21 0
-40 17 0
-8 9 0
-54 2 0
-2 7 0
-53 6 0
-11 7 0
-59 2 0
-43 12 0
-33 13 0
-18 9 0
-55 17 0
-38 6 0
-38 6 0
-37 19 0
-21 7 0
-44 17 0
-34 19 0
-3 4 0
-20 21 0
-56 12 0
-56 12 0
-9 7 0
-6 7 0
-20 21 0
-49 12 0
-29 21 0
-32 19 0
-50 19 0
-10 11 0
-23 13 0
-50 19 0
-55 17 0
-18 9 0
-15 2 0
-7 12 0
-17 7 0
-16 17 0
-25 21 0
-50 19 0
-28 11 0
-50 19 0
-40 17 0
-18 9 0
-32 19 0
-53 6 0
-57 2 0
-32 19 0
-37 19 0
-30 12 0
-57 2 0
-36 27 0
-48 21 0
-34 19 0
-53 6 0
-47 6 0
-10 11 0
-28 11 0
-32 19 0
-59 2 0
-8 9 0
-34 19 0
-34 19 0
-20 21 0
-49 12 0
-46 2 0
-14 9 0
-36 27 0
-48 21 0
-44 17 0
-44 17 0
-28 11 0
-50 19 0
-34 19 0
-37 19 0
-1 2 0
-53 6 0
-44 17 0
-25 21 0
-38 6 0
-21 7 0
-29 21 0
-28 11 0
-29 21 0
-14 9 0
-29 21 0
-55 17 0
-55 17 0
-25 21 0
-44 17 0
-10 11 0
-38 6 0
-8 9 0
-14 9 0
-9 7 0
-26 27 0
-49 12 0
-29 21 0
-2 7 0
-54 2 0
-18 9 0
-45 6 0
-18 9 0
-16 17 0
-32 19 0
-19 7 0
-35 4 0
-1 2 0
-10 11 0
-18 9 0
-29 21 0
-57 2 0
-47 6 0
-3 4 0
-20 21 0
-28 11 0
-44 17 0
-42 23 0
-40 17 0
-54 2 0
-42 23 0
-40 17 0
-9 7 0
-36 27 0
-40 17 0
-55 17 0
-8 9 0
-55 17 0
-48 21 0
-23 13 0
-55 17 0
-24 12 0
-60 42 0
-24 12 0
-38 6 0
-27 33 0
-54 2 0
-41 42 0
-35 4 0
-24 12 0
-57 2 0
-54 2 0
-47 6 0
-1 2 0
-60 42 0
-18 9 0
-11 7 0
-14 9 0
-25 21 0
-37 19 0
-59 2 0
-29 21 0
-31 4 0
-39 2 0
-14 9 0
-28 11 0
-52 27 0
-57 2 0
-50 19 0
-40 17 0
-19 7 0
-43 12 0
-59 2 0
-15 2 0
-59 2 0
-14 9 0
-37 19 0
-37 19 0
-35 4 0
-10 11 0
-34 19 0
-14 9 0
-45 6 0
-14 9 0
-35 4 0
-5 4 0
-46 2 0
-45 6 0
-45 6 0
-44 17 0
-32 19 0
-18 9 0
-39 2 0
-44 17 0
-53 6 0
-25 21 0
-26 27 0
-4 33 0
-20 21 0
-44 17 0
-8 9 0
-32 19 0
-32 19 0
-19 7 0
-16 17 0
-9 7 0
-28 11 0
-41 42 0
-20 21 0
-25 21 0
-18 9 0
-27 33 0
-10 11 0
-37 19 0
-2 7 0
-48 21 0
-5 4 0
-57 2 0
-26 27 0
-58 12 0
-37 19 0
-27 33 0
-48 21 0
-18 9 0
-26 27 0
-6 7 0
-28 11 0
-26 27 0
-35 4 0
-48 21 0
-46 2 0
-16 17 0
-26 27 0
-35 4 0
-29 21 0
-45 6 0
-21 7 0
-3 4 0
-40 17 0
-53 6 0
-59 2 0
-46 2 0
-46 2 0
-22 23 0
-16 17 0
-50 19 0
-48 21 0
-5 4 0
-28 11 0
-55 17 0
-5 4 0
-25 21 0
-3 4 0
-56 12 0
-48 21 0
-59 2 0
-47 6 0
-36 27 0
-31 4 0
-35 4 0
-44 17 0
-55 17 0
-16 17 0
-3 4 0
-58 12 0
-40 17 0
-40 17 0
-27 33 0
-46 2 0
-29 21 0
-28 11 0
-39 2 0
-16 17 0
-55 17 0
-9 7 0
-51 6 0
-29 21 0
-16 17 0
-2 7 0
-51 6 0
-20 21 0
-55 17 0
-37 19 0
-11 7 0
-21 7 0
-31 4 0
-29 21 0
-41 42 0
-20 21 0
-47 6 0
-52 27 0
-19 7 0
-16 17 0
-1 2 0
-14 9 0
-2 7 0
13 0
-23 42 0
-9 18 14 8 0
-14 -8 0
-18 -8 0
-18 -14 0
-12 7 0
61 13 0
-33 4 0
-13 33 0
-7 17 0
-17 44 55 40 16 0
-44 -40 0
-40 -16 0
-44 -16 0
-55 -40 0
-44 -55 0
-55 -16 0
-2 46 39 54 57 59 15 1 0
-39 -15 0
-46 -59 0
-54 -57 0
-46 -1 0
-57 -1 0
-39 -1 0
-59 -1 0
-39 -57 0
-46 -57 0
-39 -54 0
-54 -59 0
-54 -15 0
-46 -54 0
-46 -39 0
-39 -59 0
-57 -15 0
-59 -15 0
-54 -1 0
-15 -1 0
-46 -15 0
-57 -59 0
-11 10 28 0
-10 -28 0
-7 9 0
-6 51 47 45 53 38 0
-51 -47 0
-47 -38 0
-51 -38 0
-47 -45 0
-47 -53 0
-51 -53 0
-45 -38 0
-51 -45 0
-45 -53 0
-53 -38 0
-7 11 0
-7 21 0
-42 60 41 0
-60 -41 0
-21 25 48 29 20 0
-25 -48 0
-25 -20 0
-25 -29 0
-48 -20 0
-48 -29 0
-29 -20 0
-4 35 5 3 31 0
-5 -31 0
-35 -31 0
-35 -3 0
-35 -5 0
-3 -31 0
-5 -3 0
-33 27 0
-13 12 0
-7 19 0
-19 32 50 34 37 0
-32 -34 0
-32 -37 0
-34 -37 0
-50 -34 0
-32 -50 0
-50 -37 0
-14 0
-5 -55 0
-37 35 48 0
-34 35 48 0
-50 48 0
-38 0
32 -43 0
-32 -47 1 39 59 0
-58 0
-35 29 0
-3 -23 0
-3 52 0
-3 26 0
-3 -36 0
-31 -23 0
-31 52 0
-31 26 0
-31 -36 0
5 35 -24 0
48 29 -24 0
-37 0
5 35 -30 0
-45 0
-59 0
-32 -45 1 39 46 0
-47 0
-32 -51 1 39 15 0
-46 0
-31 55 0
3 55 -50 0
3 35 -50 0
-57 0
-5 8 14 0
-32 -53 1 39 57 0
-53 0
-34 0
-32 6 0
-40 32 37 0
-54 0
-32 -38 1 39 54 0
-34 -56 0
5 -56 0
44 16 -56 0
-35 16 55 0
-3 16 55 0
-37 -2 0
-37 -6 0
-34 -2 0
-34 -6 0
-50 -2 0
-50 -6 0
-14 55 16 0
-5 23 0
-5 52 0
-5 36 0
-5 26 0
-35 23 0
-35 52 0
-35 36 0
-35 26 0
